Route #1: 35 46 31
Route #2: 20 41 22 15
Route #3: 54 70 1
Route #4: 92 9 86
Route #5: 66 84 90 68
Route #6: 69 16 55 76
Route #7: 4 13 74
Route #8: 58 12 5
Route #9: 39 10 18
Route #10: 28 42 78 65 25
Route #11: 7 2 45 43 29 36 72 57
Route #12: 87 37 6 49 14
Route #13: 3 77 63
Route #14: 40 88 67 44
Route #15: 82 60 59
Route #16: 17 8
Route #17: 38 47 26 48 96 64 34
Route #18: 21 56 94 80
Route #19: 89 98 99 62 71
Route #20: 23 61 100
Route #21: 27 97 19
Route #22: 83 51 81
Route #23: 50 91 52
Route #24: 79 11 85 30
Route #25: 93 75
Route #26: 32 33 53 73 95 24
Cost 27591
